S1-5.dat
Tried aggregator 1 time.
MIP Presolve eliminated 13350 rows and 13351 columns.
MIP Presolve modified 4450 coefficients.
Reduced MIP has 24480 rows, 17800 columns, and 93895 nonzeros.
Reduced MIP has 8900 binaries, 6675 generals, 0 SOSs, and 0 indicators.
Presolve time = 0.17 sec. (51.55 ticks)
Found incumbent of value 1.1570000e+011 after 10.56 sec. (12248.70 ticks)
Probing time = 0.19 sec. (5.16 ticks)
Tried aggregator 1 time.
Reduced MIP has 24480 rows, 17800 columns, and 93895 nonzeros.
Reduced MIP has 8900 binaries, 6675 generals, 0 SOSs, and 0 indicators.
Presolve time = 0.13 sec. (38.55 ticks)
Probing time = 0.27 sec. (5.51 ticks)
Clique table members: 7120.
MIP emphasis: balance optimality and feasibility.
MIP search method: dynamic search.
Parallel mode: deterministic, using up to 32 threads.
Root relaxation solution time = 1.75 sec. (210.06 ticks)

        Nodes                                         Cuts/
   Node  Left     Objective  IInf  Best Integer    Best Bound    ItCnt     Gap

*     0+    0                      1.15700e+011        0.0000           100.00%
      0     0        0.0000  5323  1.15700e+011        0.0000     1431  100.00%
*     0+    0                      5.79951e+010        0.0000           100.00%
      0     0        0.0000  1228  5.79951e+010     Cuts: 735     2719  100.00%
*     0+    0                      4.40018e+010        0.0000           100.00%
      0     0        0.0000  1300  4.40018e+010    Cuts: 1239     4061  100.00%
*     0+    0                      3.48719e+010        0.0000           100.00%
      0     0        0.0000   748  3.48719e+010      Cuts: 93     4284  100.00%
*     0+    0                      3.38258e+010        0.0000           100.00%
      0     0        0.0000   943  3.38258e+010     Cuts: 435     5234  100.00%
*     0+    0                      2.03662e+010        0.0000           100.00%
      0     2        0.0000   745  2.03662e+010        0.0000     5234  100.00%
Elapsed time = 46.83 sec. (22983.84 ticks, tree = 0.00 MB, solutions = 6)
      4     6  3.50000e+007   853  2.03662e+010        0.0000     6167  100.00%
     14    16  7.00000e+007   950  2.03662e+010        0.0000    10447  100.00%
     34    36  1.22000e+008   946  2.03662e+010        0.0000    19804  100.00%
     64    66  1.74000e+008  1090  2.03662e+010        0.0000    30868  100.00%
     90    92  1.22000e+008  1056  2.03662e+010        0.0000    38608  100.00%
     95    97  1.67000e+008  1103  2.03662e+010        0.0000    40315  100.00%
    327   329  2.92000e+008  1139  2.03662e+010        0.0000   100040  100.00%
    566   568  2.14000e+008  1257  2.03662e+010        0.0000   138558  100.00%
    996   996  3.02000e+008  1189  2.03662e+010        0.0000   154201  100.00%
   2094  2089  2.14000e+008   979  2.03662e+010        0.0000   209546  100.00%
Elapsed time = 87.23 sec. (27213.38 ticks, tree = 0.00 MB, solutions = 6)
   3667  3660  3.11000e+008   821  2.03662e+010        0.0000   342714  100.00%
   5041  5034  1.67000e+008   816  2.03662e+010        0.0000   461299  100.00%
   6008  5997  4.11000e+008   853  2.03662e+010        0.0000   532298  100.00%
   7762  7730        0.0000   794  2.03662e+010        0.0000   674509  100.00%
*  7771+ 7737                      1.95041e+010        0.0000           100.00%
   7777  7745  3.39000e+008   978  1.95041e+010        0.0000   676419  100.00%
*  7780+ 7746                      1.92226e+010        0.0000           100.00%
*  7783+ 7749                      1.90863e+010        0.0000           100.00%
*  7783+ 7749                      1.90690e+010        0.0000           100.00%
*  7783+ 7749                      1.90600e+010        0.0000           100.00%
   7794  7762        0.0000   822  1.90600e+010        0.0000   687190  100.00%
*  7795+ 5174                      1.82350e+010        0.0000           100.00%
*  7795+ 3449                      1.82330e+010        0.0000           100.00%
*  7795+ 2299                      1.82049e+010        0.0000           100.00%
*  7795+ 1533                      1.82016e+010        0.0000           100.00%
   7797  1535  4.50000e+007   819  1.82016e+010        0.0000   687732  100.00%
   7822  1553  4.50000e+007  1056  1.82016e+010        0.0000   695566  100.00%
   7905  1598  9.00000e+007  1046  1.82016e+010        0.0000   723358  100.00%
   8513  1930  1.42000e+008  1118  1.82016e+010        0.0000   791222  100.00%
Elapsed time = 481.09 sec. (56302.57 ticks, tree = 27.97 MB, solutions = 22)
  10547  3072  2.55000e+008   785  1.82016e+010        0.0000   859779  100.00%
  12773  4981  1.65000e+008   755  1.82016e+010        0.0000   932244  100.00%
  13411  5619  1.15000e+008   805  1.82016e+010        0.0000   953246  100.00%
  15579  7787  2.74000e+008   795  1.82016e+010        0.0000  1026837  100.00%
  17822 10026  1.65000e+008   819  1.82016e+010        0.0000  1102266  100.00%
  20254 12458  1.65000e+008   923  1.82016e+010        0.0000  1205357  100.00%
  22487 14689  3.54100e+008   812  1.82016e+010        0.0000  1306874  100.00%
  23959 16159  3.54100e+008   962  1.82016e+010        0.0000  1405144  100.00%
  25883 18077  3.94100e+008   944  1.82016e+010        0.0000  1565634  100.00%
  27535 19729  4.03100e+008  1053  1.82016e+010        0.0000  1667334  100.00%
Elapsed time = 867.11 sec. (70172.13 ticks, tree = 271.51 MB, solutions = 22)
  29327 21521  1.47886e+009  1082  1.82016e+010        0.0000  1729196  100.00%
  31257 23451  3.07218e+009   869  1.82016e+010        0.0000  1772743  100.00%
  32710 24902  3.86268e+009   790  1.82016e+010        0.0000  1806088  100.00%
  34528 26696  5.06152e+009   664  1.82016e+010        0.0000  1871171  100.00%
* 35266+27388                      1.82010e+010        0.0000           100.00%
* 35266+27388                      1.81919e+010        0.0000           100.00%
* 35266+27388                      1.81866e+010        0.0000           100.00%
* 35266+27388                      1.81859e+010        0.0000           100.00%
* 35266+27388                      1.81806e+010        0.0000           100.00%
  35339 27463  2.37000e+008  1036  1.81806e+010        0.0000  1918378  100.00%
  36408 28414  5.02000e+008   952  1.81806e+010        0.0000  1977526  100.00%
  37688 29684  6.34000e+008   881  1.81806e+010        0.0000  2058001  100.00%
  39776 31764  4.89100e+008   894  1.81806e+010        0.0000  2182540  100.00%
  41057 33043  3.59000e+008   985  1.81806e+010        0.0000  2256191  100.00%
  42433 34417  4.69000e+008   994  1.81806e+010        0.0000  2343923  100.00%
Elapsed time = 1442.88 sec. (79864.20 ticks, tree = 598.17 MB, solutions = 28)
  45077 37051  7.26970e+008   716  1.81806e+010        0.0000  2481109  100.00%
  46980 38950  7.66450e+008   952  1.81806e+010        0.0000  2572320  100.00%
  49951 41889  8.10000e+008   915  1.81806e+010        0.0000  2704471  100.00%
  51336 43266  7.31390e+008   836  1.81806e+010        0.0000  2776196  100.00%
  52791 44715  9.12600e+008   851  1.81806e+010        0.0000  2850096  100.00%
  55642 47542  6.69100e+008   804  1.81806e+010        0.0000  3051357  100.00%
  56208 48108  1.40966e+009   828  1.81806e+010        0.0000  3099637  100.00%
  56697 48591  2.02072e+009   954  1.81806e+010        0.0000  3129669  100.00%
  58751 50623  9.54100e+008   888  1.81806e+010        0.0000  3245873  100.00%
  60409 52273  1.82770e+009  1060  1.81806e+010        0.0000  3323362  100.00%
Elapsed time = 3202.91 sec. (97172.64 ticks, tree = 997.49 MB, solutions = 28)
* 63406+55226                      1.81730e+010        0.0000           100.00%
* 63406+55226                      1.81580e+010        0.0000           100.00%
* 63406+55226                      1.81191e+010        0.0000           100.00%
* 63406+55226                      1.80939e+010        0.0000           100.00%
* 63406+55226                      1.80880e+010        0.0000           100.00%
* 63406+55226                      1.80822e+010        0.0000           100.00%
* 63406+55226                      1.80717e+010        0.0000           100.00%
* 63406+55226                      1.80179e+010        0.0000           100.00%
* 63406+55226                      1.80154e+010        0.0000           100.00%
* 63406+55226                      1.79975e+010        0.0000           100.00%
* 63406+55226                      1.79735e+010        0.0000           100.00%
* 63406+55226                      1.79566e+010        0.0000           100.00%
  63406 55228  1.00110e+009   929  1.79566e+010        0.0000  3396056  100.00%
* 63412+55232                      1.79533e+010        0.0000           100.00%
* 63412+55232                      1.79463e+010        0.0000           100.00%
* 63413+55233                      1.79113e+010        0.0000           100.00%
* 63413+55233                      1.78993e+010        0.0000           100.00%
* 63413+55233                      1.78753e+010        0.0000           100.00%
* 63413+55233                      1.78222e+010        0.0000           100.00%
* 63413+55233                      1.78186e+010        0.0000           100.00%
* 63413+55233                      1.77933e+010        0.0000           100.00%
* 63419+55236                      1.77764e+010        0.0000           100.00%
* 63419+55236                      1.77655e+010        0.0000           100.00%

GUB cover cuts applied:  32
Cover cuts applied:  5
Implied bound cuts applied:  32
Flow cuts applied:  244
Mixed integer rounding cuts applied:  22

Root node processing (before b&c):
  Real time             =   50.58 sec. (23021.66 ticks)
Parallel b&c, 32 threads:
  Real time             = 7436.72 sec. (80104.34 ticks)
  Sync time (average)   =  450.81 sec.
  Wait time (average)   =  456.54 sec.
                          ------------
Total (root+branch&cut) = 7487.30 sec. (103126.00 ticks)
AbortTimeLim
Value of objective function = 1.77655e+010
Items' area = 1.53571e+010
Yield = 0.864434